
Log for '/var/folders/wb/6pm8s60x797b47qg789x82sc0000gn/T/eab98406c06f4c66bd16455c768c2440-pulp.lp' Clone_1 (V12.10.0.0) Fri Oct  2 22:44:59 2020


Log for '/var/folders/wb/6pm8s60x797b47qg789x82sc0000gn/T/eab98406c06f4c66bd16455c768c2440-pulp.lp' Clone_1 (V12.10.0.0) Fri Oct  2 22:51:30 2020

Tried aggregator 1 time.
LP Presolve eliminated 7760 rows and 3198 columns.
All rows and columns eliminated.
Presolve time = 0.00 sec. (3.12 ticks)

Total time on 1 threads = 0.01 sec. (101.24 ticks)

Dual simplex solved model.


Log for '/var/folders/wb/6pm8s60x797b47qg789x82sc0000gn/T/cd9d991585cb4a72b484eb2da51d5075-pulp.lp' Clone_1 (V12.10.0.0) Fri Oct  2 22:51:47 2020


Log for '/var/folders/wb/6pm8s60x797b47qg789x82sc0000gn/T/cd9d991585cb4a72b484eb2da51d5075-pulp.lp' Clone_1 (V12.10.0.0) Fri Oct  2 23:06:45 2020

Tried aggregator 1 time.
LP Presolve eliminated 7760 rows and 3198 columns.
All rows and columns eliminated.
Presolve time = 0.00 sec. (3.12 ticks)

Total time on 1 threads = 0.01 sec. (101.24 ticks)

Dual simplex solved model.


Log for '/var/folders/wb/6pm8s60x797b47qg789x82sc0000gn/T/1633123bff6940aaa94d9d76a663f859-pulp.lp' Clone_1 (V12.10.0.0) Fri Oct  2 23:06:48 2020


Log for '/var/folders/wb/6pm8s60x797b47qg789x82sc0000gn/T/1633123bff6940aaa94d9d76a663f859-pulp.lp' Clone_1 (V12.10.0.0) Fri Oct  2 23:21:46 2020

Tried aggregator 1 time.
LP Presolve eliminated 7760 rows and 3198 columns.
All rows and columns eliminated.
Presolve time = 0.00 sec. (3.13 ticks)

Total time on 1 threads = 0.01 sec. (100.61 ticks)

Dual simplex solved model.


Log for '/var/folders/wb/6pm8s60x797b47qg789x82sc0000gn/T/bb393eb6bbb2491083720c88ec3d2a77-pulp.lp' Clone_1 (V12.10.0.0) Fri Oct  2 23:21:48 2020


Log for '/var/folders/wb/6pm8s60x797b47qg789x82sc0000gn/T/bb393eb6bbb2491083720c88ec3d2a77-pulp.lp' Clone_1 (V12.10.0.0) Fri Oct  2 23:26:00 2020

Tried aggregator 1 time.
LP Presolve eliminated 5910 rows and 8244 columns.
All rows and columns eliminated.
Presolve time = 0.00 sec. (3.23 ticks)

Total time on 1 threads = 0.01 sec. (101.13 ticks)

Dual simplex solved model.


Log for '/var/folders/wb/6pm8s60x797b47qg789x82sc0000gn/T/7173f89631774c6a993fc65e75c52d84-pulp.lp' Clone_1 (V12.10.0.0) Fri Oct  2 23:26:20 2020

Advanced basis not built.

Log for '/var/folders/wb/6pm8s60x797b47qg789x82sc0000gn/T/7173f89631774c6a993fc65e75c52d84-pulp.lp' Clone_1 (V12.10.0.0) Fri Oct  2 23:41:01 2020

Tried aggregator 1 time.
LP Presolve eliminated 26300 rows and 10326 columns.
All rows and columns eliminated.
Presolve time = 0.01 sec. (10.68 ticks)

Total time on 1 threads = 0.02 sec. (115.43 ticks)

Dual simplex solved model.


Log for '/var/folders/wb/6pm8s60x797b47qg789x82sc0000gn/T/6f95d4d17df84f6298522dfd712e57ba-pulp.lp' Clone_1 (V12.10.0.0) Fri Oct  2 23:41:19 2020


Log for '/var/folders/wb/6pm8s60x797b47qg789x82sc0000gn/T/6f95d4d17df84f6298522dfd712e57ba-pulp.lp' Clone_1 (V12.10.0.0) Fri Oct  2 23:56:03 2020

Tried aggregator 1 time.
LP Presolve eliminated 26300 rows and 10326 columns.
All rows and columns eliminated.
Presolve time = 0.01 sec. (10.70 ticks)

Total time on 1 threads = 0.02 sec. (115.44 ticks)

Dual simplex solved model.


Log for '/var/folders/wb/6pm8s60x797b47qg789x82sc0000gn/T/f3ce21882b164331b7b2a25dcea437b3-pulp.lp' Clone_1 (V12.10.0.0) Fri Oct  2 23:59:56 2020


Log for '/var/folders/wb/6pm8s60x797b47qg789x82sc0000gn/T/f3ce21882b164331b7b2a25dcea437b3-pulp.lp' Clone_1 (V12.10.0.0) Sat Oct  3 00:02:53 2020

Tried aggregator 1 time.
LP Presolve eliminated 7808 rows and 3198 columns.
All rows and columns eliminated.
Presolve time = 0.00 sec. (3.16 ticks)

Total time on 1 threads = 0.00 sec. (101.29 ticks)

Dual simplex solved model.


Log for '/var/folders/wb/6pm8s60x797b47qg789x82sc0000gn/T/5c8aef4aea134bd9885c76b3544c121a-pulp.lp' Clone_1 (V12.10.0.0) Sat Oct  3 00:02:56 2020


Log for '/var/folders/wb/6pm8s60x797b47qg789x82sc0000gn/T/5c8aef4aea134bd9885c76b3544c121a-pulp.lp' Clone_1 (V12.10.0.0) Sat Oct  3 00:05:54 2020

Tried aggregator 1 time.
LP Presolve eliminated 7808 rows and 3198 columns.
All rows and columns eliminated.
Presolve time = 0.00 sec. (3.16 ticks)

Total time on 1 threads = 0.00 sec. (101.30 ticks)

Dual simplex solved model.


Log for '/var/folders/wb/6pm8s60x797b47qg789x82sc0000gn/T/b12e8644f1e24065a7d68db4589d39e5-pulp.lp' Clone_1 (V12.10.0.0) Sat Oct  3 00:05:55 2020


Log for '/var/folders/wb/6pm8s60x797b47qg789x82sc0000gn/T/b12e8644f1e24065a7d68db4589d39e5-pulp.lp' Clone_1 (V12.10.0.0) Sat Oct  3 00:08:55 2020

Tried aggregator 1 time.
LP Presolve eliminated 5958 rows and 8244 columns.
All rows and columns eliminated.
Presolve time = 0.00 sec. (3.26 ticks)

Total time on 1 threads = 0.01 sec. (101.19 ticks)

Dual simplex solved model.


Log for '/var/folders/wb/6pm8s60x797b47qg789x82sc0000gn/T/074bfb02d3494de9956b547bcd4ab07d-pulp.lp' Clone_1 (V12.10.0.0) Sat Oct  3 00:09:07 2020


Log for '/var/folders/wb/6pm8s60x797b47qg789x82sc0000gn/T/074bfb02d3494de9956b547bcd4ab07d-pulp.lp' Clone_1 (V12.10.0.0) Sat Oct  3 00:11:56 2020

Tried aggregator 1 time.
LP Presolve eliminated 26480 rows and 10326 columns.
All rows and columns eliminated.
Presolve time = 0.01 sec. (10.81 ticks)

Total time on 1 threads = 0.02 sec. (115.63 ticks)

Dual simplex solved model.


Log for '/var/folders/wb/6pm8s60x797b47qg789x82sc0000gn/T/4fb5936970bc46b5acbd2eda8911af57-pulp.lp' Clone_1 (V12.10.0.0) Sat Oct  3 00:12:10 2020


Log for '/var/folders/wb/6pm8s60x797b47qg789x82sc0000gn/T/4fb5936970bc46b5acbd2eda8911af57-pulp.lp' Clone_1 (V12.10.0.0) Sat Oct  3 00:14:58 2020

Tried aggregator 1 time.
LP Presolve eliminated 26480 rows and 10326 columns.
All rows and columns eliminated.
Presolve time = 0.01 sec. (10.82 ticks)

Total time on 1 threads = 0.02 sec. (115.65 ticks)

Dual simplex solved model.


Log for '/var/folders/wb/6pm8s60x797b47qg789x82sc0000gn/T/3fca6c23f84e41e79158d55692a9007b-pulp.lp' Clone_1 (V12.10.0.0) Sat Oct  3 00:23:17 2020


Log for '/var/folders/wb/6pm8s60x797b47qg789x82sc0000gn/T/3fca6c23f84e41e79158d55692a9007b-pulp.lp' Clone_1 (V12.10.0.0) Sat Oct  3 00:26:15 2020

Tried aggregator 1 time.
LP Presolve eliminated 7736 rows and 3198 columns.
All rows and columns eliminated.
Presolve time = 0.00 sec. (3.12 ticks)

Total time on 1 threads = 0.01 sec. (101.23 ticks)

Dual simplex solved model.


Log for '/var/folders/wb/6pm8s60x797b47qg789x82sc0000gn/T/8a661455ee23410390a8e3b16a006284-pulp.lp' Clone_1 (V12.10.0.0) Sat Oct  3 00:26:17 2020


Log for '/var/folders/wb/6pm8s60x797b47qg789x82sc0000gn/T/8a661455ee23410390a8e3b16a006284-pulp.lp' Clone_1 (V12.10.0.0) Sat Oct  3 00:29:16 2020

Tried aggregator 1 time.
LP Presolve eliminated 7736 rows and 3198 columns.
All rows and columns eliminated.
Presolve time = 0.00 sec. (3.13 ticks)

Total time on 1 threads = 0.00 sec. (101.24 ticks)

Dual simplex solved model.


Log for '/var/folders/wb/6pm8s60x797b47qg789x82sc0000gn/T/a0e6865bca7a492b9c9ab446aa28c526-pulp.lp' Clone_1 (V12.10.0.0) Sat Oct  3 00:29:17 2020


Log for '/var/folders/wb/6pm8s60x797b47qg789x82sc0000gn/T/a0e6865bca7a492b9c9ab446aa28c526-pulp.lp' Clone_1 (V12.10.0.0) Sat Oct  3 00:32:16 2020

Tried aggregator 1 time.
LP Presolve eliminated 5862 rows and 8244 columns.
All rows and columns eliminated.
Presolve time = 0.00 sec. (3.19 ticks)

Total time on 1 threads = 0.01 sec. (101.08 ticks)

Dual simplex solved model.


Log for '/var/folders/wb/6pm8s60x797b47qg789x82sc0000gn/T/cad9e229094343aea42fbe214ca6a590-pulp.lp' Clone_1 (V12.10.0.0) Sat Oct  3 00:32:35 2020


Log for '/var/folders/wb/6pm8s60x797b47qg789x82sc0000gn/T/cad9e229094343aea42fbe214ca6a590-pulp.lp' Clone_1 (V12.10.0.0) Sat Oct  3 00:35:18 2020

Tried aggregator 1 time.
LP Presolve eliminated 26276 rows and 10326 columns.
All rows and columns eliminated.
Presolve time = 0.01 sec. (10.75 ticks)

Total time on 1 threads = 0.02 sec. (115.51 ticks)

Dual simplex solved model.


Log for '/var/folders/wb/6pm8s60x797b47qg789x82sc0000gn/T/4359b19ede7f4c41bef02887f03976b5-pulp.lp' Clone_1 (V12.10.0.0) Sat Oct  3 00:35:44 2020


Log for '/var/folders/wb/6pm8s60x797b47qg789x82sc0000gn/T/4359b19ede7f4c41bef02887f03976b5-pulp.lp' Clone_1 (V12.10.0.0) Sat Oct  3 00:38:19 2020

Tried aggregator 1 time.
LP Presolve eliminated 26276 rows and 10326 columns.
All rows and columns eliminated.
Presolve time = 0.01 sec. (10.77 ticks)

Total time on 1 threads = 0.02 sec. (115.53 ticks)

Dual simplex solved model.


Log for '/var/folders/wb/6pm8s60x797b47qg789x82sc0000gn/T/4ad64cf242e841bebdb0fade372700c2-pulp.lp' Clone_1 (V12.10.0.0) Sat Oct  3 00:46:28 2020


Log for '/var/folders/wb/6pm8s60x797b47qg789x82sc0000gn/T/4ad64cf242e841bebdb0fade372700c2-pulp.lp' Clone_1 (V12.10.0.0) Sat Oct  3 00:49:26 2020

Tried aggregator 1 time.
LP Presolve eliminated 7760 rows and 3198 columns.
All rows and columns eliminated.
Presolve time = 0.00 sec. (3.15 ticks)

Total time on 1 threads = 0.01 sec. (101.27 ticks)

Dual simplex solved model.


Log for '/var/folders/wb/6pm8s60x797b47qg789x82sc0000gn/T/830b04b23e094981833151cb27ae88b7-pulp.lp' Clone_1 (V12.10.0.0) Sat Oct  3 00:49:29 2020


Log for '/var/folders/wb/6pm8s60x797b47qg789x82sc0000gn/T/830b04b23e094981833151cb27ae88b7-pulp.lp' Clone_1 (V12.10.0.0) Sat Oct  3 00:52:27 2020

Tried aggregator 1 time.
LP Presolve eliminated 7760 rows and 3198 columns.
All rows and columns eliminated.
Presolve time = 0.00 sec. (3.16 ticks)

Total time on 1 threads = 0.00 sec. (101.28 ticks)

Dual simplex solved model.


Log for '/var/folders/wb/6pm8s60x797b47qg789x82sc0000gn/T/f96d73ec9b334955939f0874e6a80d29-pulp.lp' Clone_1 (V12.10.0.0) Sat Oct  3 00:52:29 2020


Log for '/var/folders/wb/6pm8s60x797b47qg789x82sc0000gn/T/f96d73ec9b334955939f0874e6a80d29-pulp.lp' Clone_1 (V12.10.0.0) Sat Oct  3 00:55:28 2020

Tried aggregator 1 time.
LP Presolve eliminated 5886 rows and 8244 columns.
All rows and columns eliminated.
Presolve time = 0.00 sec. (3.22 ticks)

Total time on 1 threads = 0.01 sec. (101.12 ticks)

Dual simplex solved model.


Log for '/var/folders/wb/6pm8s60x797b47qg789x82sc0000gn/T/bd80f4a8495f455b8c73700c7d5f2071-pulp.lp' Clone_1 (V12.10.0.0) Sat Oct  3 00:55:56 2020


Log for '/var/folders/wb/6pm8s60x797b47qg789x82sc0000gn/T/bd80f4a8495f455b8c73700c7d5f2071-pulp.lp' Clone_1 (V12.10.0.0) Sat Oct  3 00:58:29 2020

Tried aggregator 1 time.
LP Presolve eliminated 26300 rows and 10326 columns.
All rows and columns eliminated.
Presolve time = 0.01 sec. (10.78 ticks)

Total time on 1 threads = 0.02 sec. (115.56 ticks)

Dual simplex solved model.


Log for '/var/folders/wb/6pm8s60x797b47qg789x82sc0000gn/T/72328afca0bc4f7c9ae9b7123c843dca-pulp.lp' Clone_1 (V12.10.0.0) Sat Oct  3 01:01:31 2020

Tried aggregator 1 time.
LP Presolve eliminated 26300 rows and 10326 columns.
All rows and columns eliminated.
Presolve time = 0.01 sec. (10.80 ticks)

Total time on 1 threads = 0.02 sec. (115.57 ticks)

Dual simplex solved model.


Log for '/var/folders/wb/6pm8s60x797b47qg789x82sc0000gn/T/ff8444b6d3014965ad4cde704bab794c-pulp.lp' Clone_1 (V12.10.0.0) Sat Oct  3 01:07:27 2020


Log for '/var/folders/wb/6pm8s60x797b47qg789x82sc0000gn/T/ff8444b6d3014965ad4cde704bab794c-pulp.lp' Clone_1 (V12.10.0.0) Sat Oct  3 01:10:25 2020

Tried aggregator 1 time.
LP Presolve eliminated 7736 rows and 3198 columns.
All rows and columns eliminated.
Presolve time = 0.00 sec. (3.12 ticks)

Total time on 1 threads = 0.00 sec. (101.23 ticks)

Dual simplex solved model.


Log for '/var/folders/wb/6pm8s60x797b47qg789x82sc0000gn/T/58a57db081d64508ac3751c4957d1e1a-pulp.lp' Clone_1 (V12.10.0.0) Sat Oct  3 01:10:28 2020


Log for '/var/folders/wb/6pm8s60x797b47qg789x82sc0000gn/T/58a57db081d64508ac3751c4957d1e1a-pulp.lp' Clone_1 (V12.10.0.0) Sat Oct  3 01:13:26 2020

Tried aggregator 1 time.
LP Presolve eliminated 7736 rows and 3198 columns.
All rows and columns eliminated.
Presolve time = 0.00 sec. (3.13 ticks)

Total time on 1 threads = 0.00 sec. (101.24 ticks)

Dual simplex solved model.


Log for '/var/folders/wb/6pm8s60x797b47qg789x82sc0000gn/T/56013d8348144113ae3dac2863cc4308-pulp.lp' Clone_1 (V12.10.0.0) Sat Oct  3 01:13:28 2020


Log for '/var/folders/wb/6pm8s60x797b47qg789x82sc0000gn/T/56013d8348144113ae3dac2863cc4308-pulp.lp' Clone_1 (V12.10.0.0) Sat Oct  3 01:15:14 2020

Tried aggregator 1 time.
LP Presolve eliminated 5874 rows and 8244 columns.
All rows and columns eliminated.
Presolve time = 0.00 sec. (3.21 ticks)

Total time on 1 threads = 0.01 sec. (101.10 ticks)

Dual simplex solved model.


Log for '/var/folders/wb/6pm8s60x797b47qg789x82sc0000gn/T/e4afca7263c0412680b1dc8d09aa202f-pulp.lp' Clone_1 (V12.10.0.0) Sat Oct  3 01:15:41 2020


Log for '/var/folders/wb/6pm8s60x797b47qg789x82sc0000gn/T/e4afca7263c0412680b1dc8d09aa202f-pulp.lp' Clone_1 (V12.10.0.0) Sat Oct  3 01:18:15 2020

Tried aggregator 1 time.
LP Presolve eliminated 26210 rows and 10326 columns.
All rows and columns eliminated.
Presolve time = 0.01 sec. (10.67 ticks)

Total time on 1 threads = 0.02 sec. (115.39 ticks)

Dual simplex solved model.


Log for '/var/folders/wb/6pm8s60x797b47qg789x82sc0000gn/T/34e91732ff2b4a7780309646330e0032-pulp.lp' Clone_1 (V12.10.0.0) Sat Oct  3 01:21:17 2020

Tried aggregator 1 time.
LP Presolve eliminated 26210 rows and 10326 columns.
All rows and columns eliminated.
Presolve time = 0.01 sec. (10.69 ticks)

Total time on 1 threads = 0.02 sec. (115.41 ticks)

Dual simplex solved model.


Log for '/var/folders/wb/6pm8s60x797b47qg789x82sc0000gn/T/8addc734bd2e4d008d6ba8e6f4250d99-pulp.lp' Clone_1 (V12.10.0.0) Sat Oct  3 01:24:56 2020


Log for '/var/folders/wb/6pm8s60x797b47qg789x82sc0000gn/T/8addc734bd2e4d008d6ba8e6f4250d99-pulp.lp' Clone_1 (V12.10.0.0) Sat Oct  3 01:26:34 2020

Tried aggregator 1 time.
LP Presolve eliminated 7712 rows and 3198 columns.
All rows and columns eliminated.
Presolve time = 0.00 sec. (3.09 ticks)

Total time on 1 threads = 0.00 sec. (101.19 ticks)

Dual simplex solved model.


Log for '/var/folders/wb/6pm8s60x797b47qg789x82sc0000gn/T/913c83b298a64513b22608c40c0ec47a-pulp.lp' Clone_1 (V12.10.0.0) Sat Oct  3 01:26:36 2020

Advanced basis not built.

Log for '/var/folders/wb/6pm8s60x797b47qg789x82sc0000gn/T/913c83b298a64513b22608c40c0ec47a-pulp.lp' Clone_1 (V12.10.0.0) Sat Oct  3 01:28:14 2020

Tried aggregator 1 time.
LP Presolve eliminated 7712 rows and 3198 columns.
All rows and columns eliminated.
Presolve time = 0.00 sec. (3.10 ticks)

Total time on 1 threads = 0.00 sec. (100.56 ticks)

Dual simplex solved model.


Log for '/var/folders/wb/6pm8s60x797b47qg789x82sc0000gn/T/c84d666745534005b7670093d05bf40d-pulp.lp' Clone_1 (V12.10.0.0) Sat Oct  3 01:28:16 2020


Log for '/var/folders/wb/6pm8s60x797b47qg789x82sc0000gn/T/c84d666745534005b7670093d05bf40d-pulp.lp' Clone_1 (V12.10.0.0) Sat Oct  3 01:29:55 2020

Tried aggregator 1 time.
LP Presolve eliminated 5862 rows and 8244 columns.
All rows and columns eliminated.
Presolve time = 0.00 sec. (3.19 ticks)

Total time on 1 threads = 0.01 sec. (101.08 ticks)

Dual simplex solved model.


Log for '/var/folders/wb/6pm8s60x797b47qg789x82sc0000gn/T/732574b982e54f8eb0a5765cc2a8c091-pulp.lp' Clone_1 (V12.10.0.0) Sat Oct  3 01:30:55 2020

Advanced basis not built.

Log for '/var/folders/wb/6pm8s60x797b47qg789x82sc0000gn/T/732574b982e54f8eb0a5765cc2a8c091-pulp.lp' Clone_1 (V12.10.0.0) Sat Oct  3 01:31:37 2020

Tried aggregator 1 time.
LP Presolve eliminated 26120 rows and 10326 columns.
All rows and columns eliminated.
Presolve time = 0.01 sec. (10.56 ticks)

Total time on 1 threads = 0.02 sec. (115.22 ticks)

Dual simplex solved model.


Log for '/var/folders/wb/6pm8s60x797b47qg789x82sc0000gn/T/50d245a1553643e8931271856e2db9ef-pulp.lp' Clone_1 (V12.10.0.0) Sat Oct  3 01:32:40 2020


Log for '/var/folders/wb/6pm8s60x797b47qg789x82sc0000gn/T/50d245a1553643e8931271856e2db9ef-pulp.lp' Clone_1 (V12.10.0.0) Sat Oct  3 01:33:18 2020

Tried aggregator 1 time.
LP Presolve eliminated 26120 rows and 10326 columns.
All rows and columns eliminated.
Presolve time = 0.01 sec. (10.58 ticks)

Total time on 1 threads = 0.02 sec. (113.10 ticks)

Dual simplex solved model.


Log for '/var/folders/wb/6pm8s60x797b47qg789x82sc0000gn/T/f9ed90726a10496db4ced82b3f6f77f3-pulp.lp' Clone_1 (V12.10.0.0) Sat Oct  3 01:36:22 2020


Log for '/var/folders/wb/6pm8s60x797b47qg789x82sc0000gn/T/f9ed90726a10496db4ced82b3f6f77f3-pulp.lp' Clone_1 (V12.10.0.0) Sat Oct  3 01:38:01 2020

Tried aggregator 1 time.
LP Presolve eliminated 7724 rows and 3198 columns.
All rows and columns eliminated.
Presolve time = 0.00 sec. (3.11 ticks)

Total time on 1 threads = 0.00 sec. (101.21 ticks)

Dual simplex solved model.


Log for '/var/folders/wb/6pm8s60x797b47qg789x82sc0000gn/T/d8b27acc73ad47cfab378430e1c13a4f-pulp.lp' Clone_1 (V12.10.0.0) Sat Oct  3 01:38:03 2020


Log for '/var/folders/wb/6pm8s60x797b47qg789x82sc0000gn/T/d8b27acc73ad47cfab378430e1c13a4f-pulp.lp' Clone_1 (V12.10.0.0) Sat Oct  3 01:39:42 2020

Tried aggregator 1 time.
LP Presolve eliminated 7724 rows and 3198 columns.
All rows and columns eliminated.
Presolve time = 0.00 sec. (3.11 ticks)

Total time on 1 threads = 0.00 sec. (100.58 ticks)

Dual simplex solved model.


Log for '/var/folders/wb/6pm8s60x797b47qg789x82sc0000gn/T/7827d763d8af4c14b9acf48d18078d83-pulp.lp' Clone_1 (V12.10.0.0) Sat Oct  3 01:39:43 2020


Log for '/var/folders/wb/6pm8s60x797b47qg789x82sc0000gn/T/7827d763d8af4c14b9acf48d18078d83-pulp.lp' Clone_1 (V12.10.0.0) Sat Oct  3 01:41:22 2020

Tried aggregator 1 time.
LP Presolve eliminated 5862 rows and 8244 columns.
All rows and columns eliminated.
Presolve time = 0.00 sec. (3.19 ticks)

Total time on 1 threads = 0.01 sec. (101.08 ticks)

Dual simplex solved model.


Log for '/var/folders/wb/6pm8s60x797b47qg789x82sc0000gn/T/444da984377847038ee2be029fdd6242-pulp.lp' Clone_1 (V12.10.0.0) Sat Oct  3 01:42:08 2020


Log for '/var/folders/wb/6pm8s60x797b47qg789x82sc0000gn/T/444da984377847038ee2be029fdd6242-pulp.lp' Clone_1 (V12.10.0.0) Sat Oct  3 01:43:04 2020

Tried aggregator 1 time.
LP Presolve eliminated 26198 rows and 10326 columns.
All rows and columns eliminated.
Presolve time = 0.01 sec. (10.65 ticks)

Total time on 1 threads = 0.02 sec. (115.37 ticks)

Dual simplex solved model.


Log for '/var/folders/wb/6pm8s60x797b47qg789x82sc0000gn/T/46650b8f9cd34ae4b7c849d4c57a8809-pulp.lp' Clone_1 (V12.10.0.0) Sat Oct  3 01:43:30 2020


Log for '/var/folders/wb/6pm8s60x797b47qg789x82sc0000gn/T/46650b8f9cd34ae4b7c849d4c57a8809-pulp.lp' Clone_1 (V12.10.0.0) Sat Oct  3 01:44:45 2020

Tried aggregator 1 time.
LP Presolve eliminated 26198 rows and 10326 columns.
All rows and columns eliminated.
Presolve time = 0.01 sec. (10.67 ticks)

Total time on 1 threads = 0.02 sec. (115.38 ticks)

Dual simplex solved model.


Log for '/var/folders/wb/6pm8s60x797b47qg789x82sc0000gn/T/eba84f23ba2c4cccbb3ffcced4eb9fef-pulp.lp' Clone_1 (V12.10.0.0) Sat Oct  3 01:46:51 2020


Log for '/var/folders/wb/6pm8s60x797b47qg789x82sc0000gn/T/eba84f23ba2c4cccbb3ffcced4eb9fef-pulp.lp' Clone_1 (V12.10.0.0) Sat Oct  3 01:48:29 2020

Tried aggregator 1 time.
LP Presolve eliminated 7712 rows and 3198 columns.
All rows and columns eliminated.
Presolve time = 0.00 sec. (3.09 ticks)

Total time on 1 threads = 0.00 sec. (101.19 ticks)

Dual simplex solved model.


Log for '/var/folders/wb/6pm8s60x797b47qg789x82sc0000gn/T/f331a172f53e4565845ccecdc0b047e2-pulp.lp' Clone_1 (V12.10.0.0) Sat Oct  3 01:48:32 2020


Log for '/var/folders/wb/6pm8s60x797b47qg789x82sc0000gn/T/f331a172f53e4565845ccecdc0b047e2-pulp.lp' Clone_1 (V12.10.0.0) Sat Oct  3 01:50:10 2020

Tried aggregator 1 time.
LP Presolve eliminated 7712 rows and 3198 columns.
All rows and columns eliminated.
Presolve time = 0.00 sec. (3.10 ticks)

Total time on 1 threads = 0.01 sec. (101.19 ticks)

Dual simplex solved model.


Log for '/var/folders/wb/6pm8s60x797b47qg789x82sc0000gn/T/af635ed28c9d4c0bb9a2812a6f80ba95-pulp.lp' Clone_1 (V12.10.0.0) Sat Oct  3 01:50:11 2020


Log for '/var/folders/wb/6pm8s60x797b47qg789x82sc0000gn/T/af635ed28c9d4c0bb9a2812a6f80ba95-pulp.lp' Clone_1 (V12.10.0.0) Sat Oct  3 01:51:50 2020

Tried aggregator 1 time.
LP Presolve eliminated 5862 rows and 8244 columns.
All rows and columns eliminated.
Presolve time = 0.00 sec. (3.19 ticks)

Total time on 1 threads = 0.01 sec. (101.08 ticks)

Dual simplex solved model.


Log for '/var/folders/wb/6pm8s60x797b47qg789x82sc0000gn/T/a4d7f45dc4a540cc8adab3a7ee7e1327-pulp.lp' Clone_1 (V12.10.0.0) Sat Oct  3 01:52:49 2020

Advanced basis not built.

Log for '/var/folders/wb/6pm8s60x797b47qg789x82sc0000gn/T/a4d7f45dc4a540cc8adab3a7ee7e1327-pulp.lp' Clone_1 (V12.10.0.0) Sat Oct  3 01:53:32 2020

Tried aggregator 1 time.
LP Presolve eliminated 26120 rows and 10326 columns.
All rows and columns eliminated.
Presolve time = 0.01 sec. (10.56 ticks)

Total time on 1 threads = 0.02 sec. (115.22 ticks)

Dual simplex solved model.


Log for '/var/folders/wb/6pm8s60x797b47qg789x82sc0000gn/T/d9e57f960147435ea5ff364be68feb55-pulp.lp' Clone_1 (V12.10.0.0) Sat Oct  3 01:54:35 2020


Log for '/var/folders/wb/6pm8s60x797b47qg789x82sc0000gn/T/d9e57f960147435ea5ff364be68feb55-pulp.lp' Clone_1 (V12.10.0.0) Sat Oct  3 01:55:14 2020

Tried aggregator 1 time.
LP Presolve eliminated 26120 rows and 10326 columns.
All rows and columns eliminated.
Presolve time = 0.01 sec. (10.58 ticks)

Total time on 1 threads = 0.02 sec. (115.24 ticks)

Dual simplex solved model.

